Medium-instances_NetworkFacilityLocation/2023-03-27_20hr-25min-09sec/Nodes20_Arcs45_LocNodes15/Formulation-2Instance-5.log

Gurobi 9.5.2 (win64) logging started Mon Mar 27 20:26:50 2023

Set parameter LogFile to value "2023-03-27_20hr-25min-09sec/Nodes20_Arcs45_LocNodes15/Formulation-2Instance-5.log"
Set parameter TimeLimit to value 600
Set parameter IntFeasTol to value 1e-09
Set parameter DualReductions to value 0
Set parameter NonConvex to value 2
Gurobi Optimizer version 9.5.2 build v9.5.2rc0 (win64)
Thread count: 4 physical cores, 8 logical processors, using up to 8 threads
Optimize a model with 101 rows, 180 columns and 410 nonzeros
Model fingerprint: 0x85061c9d
Model has 65 quadratic objective terms
Model has 65 SOS constraints
Variable types: 165 continuous, 15 integer (15 binary)
Coefficient statistics:
  Matrix range     [2e-02, 2e+02]
  Objective range  [2e-01, 1e+03]
  QObjective range [5e-02, 8e+00]
  Bounds range     [1e+00, 1e+00]
  RHS range        [2e-01, 1e+03]
Presolve removed 6 rows and 12 columns
Presolve time: 0.00s
Presolved: 95 rows, 168 columns, 378 nonzeros
Presolved model has 57 SOS constraint(s)
Presolved model has 57 quadratic objective terms
Variable types: 153 continuous, 15 integer (15 binary)

Root relaxation: objective 3.193908e+05, 230 iterations, 0.00 seconds (0.00 work units)

    Nodes    |    Current Node    |     Objective Bounds      |     Work
 Expl Unexpl |  Obj  Depth IntInf | Incumbent    BestBd   Gap | It/Node Time

     0     0 319390.795    0   10          - 319390.795      -     -    0s
H    0     0                    313342.54634 319390.795  1.93%     -    0s
H    0     0                    318279.89447 319390.795  0.35%     -    0s
H    0     0                    318279.93176 319390.795  0.35%     -    0s
     0     0 319203.392    0    9 318279.932 319203.392  0.29%     -    0s
     0     0 319035.236    0    9 318279.932 319035.236  0.24%     -    0s
     0     0 319035.236    0    9 318279.932 319035.236  0.24%     -    0s
     0     0 318758.902    0    8 318279.932 318758.902  0.15%     -    0s
     0     0 318758.902    0    7 318279.932 318758.902  0.15%     -    0s
     0     0 318758.902    0    7 318279.932 318758.902  0.15%     -    0s
     0     0 318758.902    0   24 318279.932 318758.902  0.15%     -    0s
     0     0 318758.902    0   22 318279.932 318758.902  0.15%     -    0s
     0     0 318758.902    0   22 318279.932 318758.902  0.15%     -    0s
     0     0 318699.851    0   22 318279.932 318699.851  0.13%     -    0s
     0     0 318651.097    0   22 318279.932 318651.097  0.12%     -    0s
     0     0 318351.475    0    7 318279.932 318351.475  0.02%     -    0s
     0     0 318351.475    0   13 318279.932 318351.475  0.02%     -    0s
     0     0 318351.475    0   11 318279.932 318351.475  0.02%     -    0s
     0     0 318351.475    0   11 318279.932 318351.475  0.02%     -    0s
     0     0 318351.475    0   11 318279.932 318351.475  0.02%     -    0s
H    0     0                    318349.98537 318351.475  0.00%     -    0s

Cutting planes:
  Cover: 3
  Implied bound: 2
  Clique: 1
  MIR: 1
  Flow cover: 1

Explored 1 nodes (769 simplex iterations) in 0.39 seconds (0.05 work units)
Thread count was 8 (of 8 available processors)

Solution count 4: 318350 318280 313343 313181 

Optimal solution found (tolerance 1.00e-04)
Best objective 3.183499853740e+05, best bound 3.183514753399e+05, gap 0.0005%

User-callback calls 460, time in user-callback 0.00 sec
